(set-logic BV) (define-fun origCir ((i18 Bool) (i17 Bool) (i16 Bool) (i19 Bool)) Bool (and (and (and (not i17) (not i16)) (not i18)) (not i19))) (synth-fun skel ((i18 Bool) (i17 Bool) (i16 Bool) (i19 Bool)) Bool) (declare-var i18 Bool) (declare-var i17 Bool) (declare-var i16 Bool) (declare-var i19 Bool) (constraint (= (origCir i18 i17 i16 i19) (skel i18 i17 i16 i19))) (check-synth)
